INPUT_PARAMETERS
ntype                   1
calculation             nscf
basis_type              lcao
ecutwfc                 100
gamma_only              0
symmetry                0
kspacing                0.2
smearing_method         gaussian
smearing_sigma          0.05
mixing_type             pulay
mixing_beta             0.4
out_mat_hs              1
