INPUT_PARAMETERS
ntype                   1
calculation             get_s
basis_type              lcao
ecutwfc                 100
scf_thr                 1.0e-8
scf_nmax                100
gamma_only              0
symmetry                0
kspacing                0.08

smearing_method         gaussian
smearing_sigma          0.05

mixing_type             pulay
mixing_beta             0.4
